;symbolic execution tree
(push)
(assert (le x0 java.lang.Object))
(check-sat)
(push)
(assert (le x1 java.lang.Object))
(check-sat)
(push)
(assert (le x0 weka.core.Attribute))
(check-sat)
(pop)
(push)
(assert (not (le x0 weka.core.Attribute)))
(check-sat)
(push)
(assert (= x1 java.lang.StringBuilder))
(check-sat)
(push)
(assert (le x0 weka.core.Attribute))
(check-sat)
(pop)
(push)
(assert (not (le x0 weka.core.Attribute)))
(check-sat)
(push)
(assert (le x0 weka.core.Attribute))
(check-sat)
(pop)
(push)
(assert (not (le x0 weka.core.Attribute)))
(check-sat)
(pop)
(pop)
(push)
(assert (le x0 weka.core.Attribute))
(check-sat)
(pop)
(push)
(assert (not (le x0 weka.core.Attribute)))
(check-sat)
(push)
(assert (= x1 java.lang.StringBuilder))
(check-sat)
(push)
(assert (= x1 java.lang.StringBuilder))
(check-sat)
(pop)
(push)
(assert (not (= x1 java.lang.StringBuilder)))
(check-sat)
(pop)
(pop)
(push)
(assert (not (= x1 java.lang.StringBuilder)))
(check-sat)
(pop)
(pop)
(push)
(assert (le x0 weka.core.Attribute))
(check-sat)
(pop)
(push)
(assert (not (le x0 weka.core.Attribute)))
(check-sat)
(push)
(assert (le x0 weka.core.Attribute))
(check-sat)
(pop)
(push)
(assert (not (le x0 weka.core.Attribute)))
(check-sat)
(pop)
(pop)
(pop)
(push)
(assert (not (= x1 java.lang.StringBuilder)))
(check-sat)
(push)
(assert (= x1 java.lang.StringBuilder))
(check-sat)
(pop)
(push)
(assert (not (= x1 java.lang.StringBuilder)))
(check-sat)
(push)
(assert (le x0 weka.core.Attribute))
(check-sat)
(pop)
(push)
(assert (not (le x0 weka.core.Attribute)))
(check-sat)
(pop)
(pop)
(push)
(assert (le x0 weka.core.Attribute))
(check-sat)
(pop)
(push)
(assert (not (le x0 weka.core.Attribute)))
(check-sat)
(push)
(assert (= x1 java.lang.StringBuilder))
(check-sat)
(pop)
(push)
(assert (not (= x1 java.lang.StringBuilder)))
(check-sat)
(push)
(assert (le x0 weka.core.Attribute))
(check-sat)
(pop)
(push)
(assert (not (le x0 weka.core.Attribute)))
(check-sat)
(pop)
(pop)
(pop)
(pop)
(push)
(assert (le x1 java.util.HashSet))
(check-sat)
(pop)
(push)
(assert (not (le x1 java.util.HashSet)))
(check-sat)
(pop)
(push)
(assert (le x1 java.util.Vector))
(check-sat)
(push)
(assert (le x1 java.util.Vector))
(check-sat)
(push)
(assert (le x1 java.util.Vector))
(check-sat)
(pop)
(push)
(assert (not (le x1 java.util.Vector)))
(check-sat)
(pop)
(push)
(assert (le x1 java.util.Vector))
(check-sat)
(pop)
(push)
(assert (not (le x1 java.util.Vector)))
(check-sat)
(pop)
(pop)
(push)
(assert (not (le x1 java.util.Vector)))
(check-sat)
(pop)
(push)
(assert (le x0 weka.core.Attribute))
(check-sat)
(pop)
(push)
(assert (not (le x0 weka.core.Attribute)))
(check-sat)
(push)
(assert (le x1 java.util.Vector))
(check-sat)
(pop)
(push)
(assert (not (le x1 java.util.Vector)))
(check-sat)
(pop)
(pop)
(pop)
(push)
(assert (not (le x1 java.util.Vector)))
(check-sat)
(pop)
(push)
(assert (le x1 weka.core.FastVector))
(check-sat)
(push)
(assert (le x1 weka.core.FastVector))
(check-sat)
(pop)
(push)
(assert (not (le x1 weka.core.FastVector)))
(check-sat)
(pop)
(push)
(assert (le x0 weka.core.Attribute))
(check-sat)
(pop)
(push)
(assert (not (le x0 weka.core.Attribute)))
(check-sat)
(push)
(assert (le x0 weka.core.Attribute))
(check-sat)
(pop)
(push)
(assert (not (le x0 weka.core.Attribute)))
(check-sat)
(pop)
(pop)
(push)
(assert (le x1 weka.core.FastVector))
(check-sat)
(pop)
(push)
(assert (not (le x1 weka.core.FastVector)))
(check-sat)
(pop)
(push)
(assert (le x1 weka.core.FastVector))
(check-sat)
(pop)
(push)
(assert (not (le x1 weka.core.FastVector)))
(check-sat)
(pop)
(push)
(assert (le x0 weka.core.Attribute))
(check-sat)
(pop)
(push)
(assert (not (le x0 weka.core.Attribute)))
(check-sat)
(pop)
(push)
(assert (le x0 weka.core.Attribute))
(check-sat)
(pop)
(push)
(assert (not (le x0 weka.core.Attribute)))
(check-sat)
(push)
(assert (le x1 weka.core.FastVector))
(check-sat)
(pop)
(push)
(assert (not (le x1 weka.core.FastVector)))
(check-sat)
(pop)
(pop)
(push)
(assert (le x0 weka.core.Attribute))
(check-sat)
(pop)
(push)
(assert (not (le x0 weka.core.Attribute)))
(check-sat)
(push)
(assert (le x1 weka.core.FastVector))
(check-sat)
(pop)
(push)
(assert (not (le x1 weka.core.FastVector)))
(check-sat)
(pop)
(push)
(assert (le x1 weka.core.FastVector))
(check-sat)
(pop)
(push)
(assert (not (le x1 weka.core.FastVector)))
(check-sat)
(pop)
(pop)
(push)
(assert (le x1 weka.core.FastVector))
(check-sat)
(push)
(assert (le x1 weka.core.FastVector))
(check-sat)
(pop)
(push)
(assert (not (le x1 weka.core.FastVector)))
(check-sat)
(pop)
(push)
(assert (le x0 weka.core.Attribute))
(check-sat)
(pop)
(push)
(assert (not (le x0 weka.core.Attribute)))
(check-sat)
(pop)
(pop)
(push)
(assert (not (le x1 weka.core.FastVector)))
(check-sat)
(pop)
(push)
(assert (le x1 weka.core.FastVector))
(check-sat)
(push)
(assert (le x0 weka.core.Attribute))
(check-sat)
(pop)
(push)
(assert (not (le x0 weka.core.Attribute)))
(check-sat)
(pop)
(pop)
(push)
(assert (not (le x1 weka.core.FastVector)))
(check-sat)
(pop)
(pop)
(push)
(assert (not (le x1 weka.core.FastVector)))
(check-sat)
(pop)
(push)
(assert (le x0 weka.core.Attribute))
(check-sat)
(pop)
(push)
(assert (not (le x0 weka.core.Attribute)))
(check-sat)
(push)
(assert (= x1 java.lang.String))
(check-sat)
(pop)
(push)
(assert (not (= x1 java.lang.String)))
(check-sat)
(pop)
(pop)
(push)
(assert (le x0 weka.core.Attribute))
(check-sat)
(pop)
(push)
(assert (not (le x0 weka.core.Attribute)))
(check-sat)
(pop)
(push)
(assert (le x1 java.util.Vector))
(check-sat)
(push)
(assert (le x1 java.util.Vector))
(check-sat)
(pop)
(push)
(assert (not (le x1 java.util.Vector)))
(check-sat)
(pop)
(push)
(assert (le x1 java.util.Vector))
(check-sat)
(push)
(assert (le x0 weka.core.Attribute))
(check-sat)
(pop)
(push)
(assert (not (le x0 weka.core.Attribute)))
(check-sat)
(pop)
(pop)
(push)
(assert (not (le x1 java.util.Vector)))
(check-sat)
(pop)
(push)
(assert (le x0 weka.core.Attribute))
(check-sat)
(pop)
(push)
(assert (not (le x0 weka.core.Attribute)))
(check-sat)
(pop)
(push)
(assert (le x0 weka.core.Attribute))
(check-sat)
(pop)
(push)
(assert (not (le x0 weka.core.Attribute)))
(check-sat)
(push)
(assert (le x1 java.util.Vector))
(check-sat)
(pop)
(push)
(assert (not (le x1 java.util.Vector)))
(check-sat)
(pop)
(pop)
(pop)
(push)
(assert (not (le x1 java.util.Vector)))
(check-sat)
(pop)
(push)
(assert (le x1 weka.core.Instance))
(check-sat)
(pop)
(push)
(assert (not (le x1 weka.core.Instance)))
(check-sat)
(push)
(assert (le x0 weka.core.Attribute))
(check-sat)
(pop)
(push)
(assert (not (le x0 weka.core.Attribute)))
(check-sat)
(pop)
(pop)
(push)
(assert (le x1 weka.core.Instance))
(check-sat)
(push)
(assert (le x0 weka.core.Attribute))
(check-sat)
(pop)
(push)
(assert (not (le x0 weka.core.Attribute)))
(check-sat)
(pop)
(push)
(assert (le x0 weka.core.Attribute))
(check-sat)
(pop)
(push)
(assert (not (le x0 weka.core.Attribute)))
(check-sat)
(push)
(assert (le x1 weka.core.Instance))
(check-sat)
(pop)
(push)
(assert (not (le x1 weka.core.Instance)))
(check-sat)
(pop)
(pop)
(push)
(assert (le x1 weka.core.Instance))
(check-sat)
(pop)
(push)
(assert (not (le x1 weka.core.Instance)))
(check-sat)
(pop)
(pop)
(push)
(assert (not (le x1 weka.core.Instance)))
(check-sat)
(push)
(assert (le x0 weka.core.Attribute))
(check-sat)
(pop)
(push)
(assert (not (le x0 weka.core.Attribute)))
(check-sat)
(pop)
(pop)
(push)
(assert (= x1 java.lang.String))
(check-sat)
(push)
(assert (le x0 weka.core.Attribute))
(check-sat)
(pop)
(push)
(assert (not (le x0 weka.core.Attribute)))
(check-sat)
(push)
(assert (= x1 java.lang.String))
(check-sat)
(pop)
(push)
(assert (not (= x1 java.lang.String)))
(check-sat)
(pop)
(pop)
(pop)
(push)
(assert (not (= x1 java.lang.String)))
(check-sat)
(push)
(assert (= x1 java.lang.String))
(check-sat)
(pop)
(push)
(assert (not (= x1 java.lang.String)))
(check-sat)
(pop)
(push)
(assert (= x1 java.lang.String))
(check-sat)
(pop)
(push)
(assert (not (= x1 java.lang.String)))
(check-sat)
(pop)
(push)
(assert (le x0 weka.core.Attribute))
(check-sat)
(pop)
(push)
(assert (not (le x0 weka.core.Attribute)))
(check-sat)
(push)
(assert (= x1 java.lang.String))
(check-sat)
(pop)
(push)
(assert (not (= x1 java.lang.String)))
(check-sat)
(pop)
(push)
(assert (= x1 java.lang.String))
(check-sat)
(pop)
(push)
(assert (not (= x1 java.lang.String)))
(check-sat)
(pop)
(push)
(assert (= x1 java.lang.String))
(check-sat)
(pop)
(push)
(assert (not (= x1 java.lang.String)))
(check-sat)
(pop)
(push)
(assert (= x1 java.lang.String))
(check-sat)
(pop)
(push)
(assert (not (= x1 java.lang.String)))
(check-sat)
(pop)
(push)
(assert (= x1 java.lang.String))
(check-sat)
(pop)
(push)
(assert (not (= x1 java.lang.String)))
(check-sat)
(pop)
(pop)
(push)
(assert (le x0 weka.core.Attribute))
(check-sat)
(pop)
(push)
(assert (not (le x0 weka.core.Attribute)))
(check-sat)
(pop)
(pop)
(push)
(assert (le x0 weka.core.Attribute))
(check-sat)
(pop)
(push)
(assert (not (le x0 weka.core.Attribute)))
(check-sat)
(push)
(assert (le x1 weka.filters.unsupervised.attribute.Remove))
(check-sat)
(pop)
(push)
(assert (not (le x1 weka.filters.unsupervised.attribute.Remove)))
(check-sat)
(push)
(assert (le x0 weka.core.Attribute))
(check-sat)
(pop)
(push)
(assert (not (le x0 weka.core.Attribute)))
(check-sat)
(pop)
(push)
(assert (le x0 weka.core.Attribute))
(check-sat)
(pop)
(push)
(assert (not (le x0 weka.core.Attribute)))
(check-sat)
(pop)
(pop)
(push)
(assert (le x0 weka.core.Attribute))
(check-sat)
(pop)
(push)
(assert (not (le x0 weka.core.Attribute)))
(check-sat)
(pop)
(pop)
(pop)
